NAME : cgl_32.4035.tour
COMMENT : Length = 4035
COMMENT : Found by LKH-3 [Keld Helsgaun] Thu Jun 26 21:26:48 2025
TYPE : TOUR
DIMENSION : 33
TOUR_SECTION
4
28
32
1
30
31
29
3
2
33
19
7
15
8
13
17
11
21
9
18
12
20
10
14
16
22
24
23
25
26
27
6
5
-1
EOF
